15	20	16	2	6	2	19	13	13	18
3	20	11	2	13	7	13	16	15	11
4	1	2	7	10	13	6	17	19	16
11	10	17	16	12	17	13	2	6	15
20	6	19	11	16	2	14	7	20	20
11	11	4	12	15	19	17	6	11	9
3	4	15	11	11	16	2	11	7	18
3	12	14	2	10	6	9	8	3	20
5	12	5	7	12	15	6	11	17	9
16	3	3	19	17	1	1	20	12	8
3	13	16	4	8	16	2	19	13	8
15	13	20	14	1	7	7	19	7	16
4	3	11	9	2	10	19	2	19	12
16	4	1	11	14	17	19	20	4	11
5	14	3	12	1	1	7	6	16	14
8	10	3	6	14	12	13	17	3	16
13	7	1	17	20	14	4	13	2	14
15	2	13	16	18	3	4	8	19	20
3	17	6	2	17	20	12	14	11	17
